





































































72 8 
35 62 
76 73 
2 56 
25 24 
57 39 
14 23 
3 
16 58 
20 61 
0 12 
28 
42 49 
10 63 
9 64 
69 
48 33 
26 6 
18 50 
29 27 
54 55 
71 41 
38 4 
53 68 
46 22 
67 
7 31 
51 1 
15 
74 43 
59 17 
60 32 
36 44 

21 65 
30 11 
52 70 
75 
45 5 
19 13 
47 

34 40 
66 
37 
